************************************************************************
file with basedata            : md376_.bas
initial value random generator: 2047500458
************************************************************************
projects                      :  1
jobs (incl. supersource/sink ):  22
horizon                       :  169
RESOURCES
  - renewable                 :  2   R
  - nonrenewable              :  2   N
  - doubly constrained        :  0   D
************************************************************************
PROJECT INFORMATION:
pronr.  #jobs rel.date duedate tardcost  MPM-Time
    1     20      0       24        5       24
************************************************************************
PRECEDENCE RELATIONS:
jobnr.    #modes  #successors   successors
   1        1          3           2   3   4
   2        3          3           9  11  17
   3        3          2           6   7
   4        3          3           5   8  19
   5        3          3           9  10  15
   6        3          2          13  18
   7        3          3           8  12  19
   8        3          2          15  16
   9        3          2          12  21
  10        3          3          11  14  16
  11        3          2          20  21
  12        3          2          14  16
  13        3          1          17
  14        3          1          18
  15        3          1          18
  16        3          1          20
  17        3          2          19  21
  18        3          1          20
  19        3          1          22
  20        3          1          22
  21        3          1          22
  22        1          0        
************************************************************************
REQUESTS/DURATIONS:
jobnr. mode duration  R 1  R 2  N 1  N 2
------------------------------------------------------------------------
  1      1     0       0    0    0    0
  2      1     1       5    4    7   10
         2     6       4    3    5    7
         3     8       3    3    3    7
  3      1     2       7    6    6    3
         2     8       4    3    2    3
         3     8       1    6    4    3
  4      1     3       6    2    5   10
         2     5       6    2    4    9
         3     8       6    1    4    9
  5      1     2       3    7   10    6
         2    10       2    6    7    3
         3    10       3    5    5    4
  6      1     1       4   10    7    3
         2     5       4    7    7    3
         3     9       4    3    6    3
  7      1     3       8    8   10    7
         2     7       7    8    7    5
         3     9       4    8    6    2
  8      1     4       7    7   10    2
         2     6       7    6    5    2
         3     8       7    4    3    2
  9      1     4       6   10    9    5
         2     5       3    7    8    2
         3     5       5    6    9    2
 10      1     1       2   10    6    7
         2     5       1   10    5    7
         3     7       1   10    2    6
 11      1     2      10    8    9    4
         2     3       6    8    7    4
         3     7       6    5    7    2
 12      1     9       7    9    7    3
         2    10       4    5    6    2
         3    10       4    3    5    3
 13      1     5       8    4    6    8
         2     7       8    3    6    7
         3     9       7    3    5    7
 14      1     2       9    4    6    7
         2     6       7    4    4    7
         3     9       6    2    2    6
 15      1     1       6    7    8    3
         2     4       5    6    8    2
         3     9       3    2    7    2
 16      1     2       7    6    5    1
         2     3       6    4    4    1
         3     8       3    2    4    1
 17      1     3       9    9    7    7
         2     9       8    8    6    6
         3     9       7    8    5    7
 18      1     1       7    6    5   10
         2    10       5    4    1    1
         3    10       3    4    2    6
 19      1     4       8    6    6    9
         2     5       7    5    3    8
         3     6       5    3    3    8
 20      1     3      10    8    2    4
         2     5       9    6    2    3
         3    10       9    2    1    3
 21      1     5       9    5    9    8
         2     6       7    5    4    7
         3    10       5    4    1    4
 22      1     0       0    0    0    0
************************************************************************
RESOURCEAVAILABILITIES:
  R 1  R 2  N 1  N 2
   31   31  125  108
************************************************************************
MAXIMAL LAGS:
from  to  type  delay
    1   22   ES      0
    1    2   ES      0
    2   22   ES      0
    1    3   ES      0
    3   22   ES      0
    1    4   ES      0
    4   22   ES      0
    1    5   ES      0
    5   22   ES      0
    1    6   ES      0
    6   22   ES      0
    1    7   ES      0
    7   22   ES      0
    1    8   ES      0
    8   22   ES      0
    1    9   ES      0
    9   22   ES      0
    1   10   ES      0
   10   22   ES      0
    1   11   ES      0
   11   22   ES      0
    1   12   ES      0
   12   22   ES      0
    1   13   ES      0
   13   22   ES      0
    1   14   ES      0
   14   22   ES      0
    1   15   ES      0
   15   22   ES      0
    1   16   ES      0
   16   22   ES      0
    1   17   ES      0
   17   22   ES      0
    1   18   ES      0
   18   22   ES      0
    1   19   ES      0
   19   22   ES      0
    1   20   ES      0
   20   22   ES      0
    1   21   ES      0
   21   22   ES      0
    1   22   ES      0
    2    9   SS      8
    2    9   SE      6
    2    9   ES      9
    2    9   EE     -7
    2   11   SS     10
    2   11   SE      3
    2   11   ES     -3
    2   11   EE      9
    2   17   SS      0
    2   17   SE     12
    2   17   ES     -7
    2   17   EE     -7
    3    6   SS      0
    3    6   SE      4
    3    6   ES      9
    3    6   EE      7
    3    7   SS      3
    3    7   SE     -2
    3    7   ES     -6
    3    7   EE    -10
    4    5   SS    -10
    4    5   SE     11
    4    5   ES     -1
    4    5   EE     -7
    4    8   SS      9
    4    8   SE     -4
    4    8   ES     12
    4    8   EE     -6
    4   19   SS      5
    4   19   SE      3
    4   19   ES     -8
    4   19   EE      9
    5    9   SS    -12
    5    9   SE      2
    5    9   ES     -2
    5    9   EE      2
    5   10   SS      7
    5   10   SE     -6
    5   10   ES     11
    5   10   EE     -9
    5   15   SS     -3
    5   15   SE      8
    5   15   ES     -3
    5   15   EE     -4
    6   13   SS      8
    6   13   SE      7
    6   13   ES     -4
    6   13   EE     -9
    6   18   SS      6
    6   18   SE     10
    6   18   ES      6
    6   18   EE      0
    7    8   SS      9
    7    8   SE     -4
    7    8   ES     -2
    7    8   EE      9
    7   12   SS      6
    7   12   SE     12
    7   12   ES     12
    7   12   EE      8
    7   19   SS      0
    7   19   SE     -7
    7   19   ES      8
    7   19   EE     -4
    8   15   SS      9
    8   15   SE     -6
    8   15   ES      5
    8   15   EE     -4
    8   16   SS    -12
    8   16   SE      6
    8   16   ES     10
    8   16   EE     -8
    9   12   SS     12
    9   12   SE      3
    9   12   ES      2
    9   12   EE      9
    9   21   SS    -10
    9   21   SE     -1
    9   21   ES      2
    9   21   EE     -5
   10   11   SS      9
   10   11   SE      8
   10   11   ES      1
   10   11   EE      4
   10   14   SS     -2
   10   14   SE    -12
   10   14   ES      8
   10   14   EE      2
   10   16   SS    -11
   10   16   SE     -2
   10   16   ES      9
   10   16   EE     -9
   11   20   SS      5
   11   20   SE     -8
   11   20   ES     -1
   11   20   EE    -10
   11   21   SS      8
   11   21   SE     -9
   11   21   ES    -12
   11   21   EE     -6
   12   14   SS    -10
   12   14   SE      8
   12   14   ES      5
   12   14   EE      1
   12   16   SS      2
   12   16   SE     -8
   12   16   ES    -12
   12   16   EE      3
   13   17   SS     -1
   13   17   SE      6
   13   17   ES     -9
   13   17   EE     -4
   14   18   SS     -4
   14   18   SE     11
   14   18   ES     -1
   14   18   EE      1
   15   18   SS      1
   15   18   SE    -10
   15   18   ES      7
   15   18   EE      1
   16   20   SS      0
   16   20   SE     11
   16   20   ES      2
   16   20   EE      9
   17   19   SS      0
   17   19   SE    -12
   17   19   ES    -10
   17   19   EE     11
   17   21   SS     -2
   17   21   SE    -11
   17   21   ES     10
   17   21   EE     -4
   18   20   SS     -5
   18   20   SE     -4
   18   20   ES    -12
   18   20   EE     12
************************************************************************
